100
40 4
16 0
42 0
5 4
41 0
19 4
37 3
44 4
16 2
35 1
9 3
6 4
6 0
2 3
3 4
1 0
41 4
8 4
26 4
18 3
29 0
5 0
20 4
29 4
21 2
7 3
44 2
21 3
8 0
36 4
40 0
10 0
43 4
3 0
9 0
1 4
35 0
3 3
30 1
12 4
11 0
22 1
43 1
0 4
13 0
7 1
2 4
38 4
9 4
14 1
44 1
21 0
11 4
42 4
21 4
40 3
25 4
36 0
35 2
17 1
1 3
28 4
4 4
39 4
16 1
12 0
14 4
2 0
26 0
19 2
27 4
7 4
17 0
8 3
0 1
13 4
10 4
7 0
37 1
28 0
4 1
43 0
31 0
14 0
11 2
12 1
23 2
30 4
25 2
31 3
15 4
22 0
32 4
18 0
12 3
22 3
9 1
37 0
22 4
18 1

